
interface IMoveUpDown {
    in void moveUp();
    in void moveDown();
    out void moveFinished();
    in void abort();
    out void moveAborted();

    behavior {
        enum State { IDLE, MOVING_UP, UP, MOVING_DOWN, DOWN, ABORTING };
        State state = State.IDLE;

        [ state.IDLE ] on moveUp: { state = State.MOVING_UP; }
        [ state.IDLE ] on moveDown: { state = State.MOVING_DOWN; }
        
        [ state.MOVING_UP ] on inevitable: { moveFinished; state = State.UP; }
        [ state.MOVING_UP ] on abort: { state = State.ABORTING; }

        [ state.MOVING_DOWN ] on inevitable: { moveFinished; state = State.DOWN; }
        [ state.MOVING_DOWN ] on abort: { state = State.ABORTING; }

        [ state.DOWN ] on moveUp: { state = State.MOVING_UP; }
        [ state.UP ]   on moveDown: { state = State.MOVING_DOWN; }
        
        [ state.ABORTING ] on inevitable: { moveAborted; state = State.IDLE; }
    }
}